NAME /Users/henri/Research/solvers/instances/idol-instances/robust/collection/spp_dkp_Lefebvre_et_al_2026/shortest_path_5_5/uncertainty_sets/discrete_knapsack
ROWS
 N  OBJ
 L  primal_lower
COLUMNS
    MARKER    'MARKER'                 'INTORG'
    y[0,3]     OBJ        0
    y[0,3]     primal_lower -0.7
    y[0,4]     OBJ        0
    y[0,4]     primal_lower -6.03
    y[1,2]     OBJ        0
    y[1,2]     primal_lower -4.51
    y[1,3]     OBJ        0
    y[1,3]     primal_lower -2.17
    y[1,4]     OBJ        0
    y[1,4]     primal_lower -4.38
    y[2,1]     OBJ        0
    y[2,1]     primal_lower -4.95
    y[2,3]     OBJ        0
    y[2,3]     primal_lower -3.99
    y[2,4]     OBJ        0
    y[2,4]     primal_lower -2.57
    y[3,0]     OBJ        0
    y[3,0]     primal_lower -4.37
    y[3,1]     OBJ        0
    y[3,1]     primal_lower -1.53
    y[3,2]     OBJ        0
    y[3,2]     primal_lower -1.58
    y[3,4]     OBJ        0
    y[3,4]     primal_lower -0.15
    y[4,0]     OBJ        0
    y[4,0]     primal_lower -0.61
    y[4,1]     OBJ        0
    y[4,1]     primal_lower -1.86
    y[4,2]     OBJ        0
    y[4,2]     primal_lower -3.97
    y[4,3]     OBJ        0
    y[4,3]     primal_lower -1.99
    u[0,3]     OBJ        0
    u[0,3]     primal_lower 32
    u[0,4]     OBJ        0
    u[0,4]     primal_lower 49
    u[1,2]     OBJ        0
    u[1,2]     primal_lower 89
    u[1,3]     OBJ        0
    u[1,3]     primal_lower 93
    u[1,4]     OBJ        0
    u[1,4]     primal_lower 55
    u[2,1]     OBJ        0
    u[2,1]     primal_lower 67
    u[2,3]     OBJ        0
    u[2,3]     primal_lower 24
    u[2,4]     OBJ        0
    u[2,4]     primal_lower 99
    u[3,0]     OBJ        0
    u[3,0]     primal_lower 33
    u[3,1]     OBJ        0
    u[3,1]     primal_lower 64
    u[3,2]     OBJ        0
    u[3,2]     primal_lower 94
    u[3,4]     OBJ        0
    u[3,4]     primal_lower 84
    u[4,0]     OBJ        0
    u[4,0]     primal_lower 10
    u[4,1]     OBJ        0
    u[4,1]     primal_lower 60
    u[4,2]     OBJ        0
    u[4,2]     primal_lower 44
    u[4,3]     OBJ        0
    u[4,3]     primal_lower 30
    MARKER    'MARKER'                 'INTEND'
RHS
    RHS       primal_lower 99
BOUNDS
 LI BND       y[0,3]     0
 UI BND       y[0,3]     1
 LI BND       y[0,4]     0
 UI BND       y[0,4]     1
 LI BND       y[1,2]     0
 UI BND       y[1,2]     1
 LI BND       y[1,3]     0
 UI BND       y[1,3]     1
 LI BND       y[1,4]     0
 UI BND       y[1,4]     1
 LI BND       y[2,1]     0
 UI BND       y[2,1]     1
 LI BND       y[2,3]     0
 UI BND       y[2,3]     1
 LI BND       y[2,4]     0
 UI BND       y[2,4]     1
 LI BND       y[3,0]     0
 UI BND       y[3,0]     1
 LI BND       y[3,1]     0
 UI BND       y[3,1]     1
 LI BND       y[3,2]     0
 UI BND       y[3,2]     1
 LI BND       y[3,4]     0
 UI BND       y[3,4]     1
 LI BND       y[4,0]     0
 UI BND       y[4,0]     1
 LI BND       y[4,1]     0
 UI BND       y[4,1]     1
 LI BND       y[4,2]     0
 UI BND       y[4,2]     1
 LI BND       y[4,3]     0
 UI BND       y[4,3]     1
 LI BND       u[0,3]     0
 UI BND       u[0,3]     1
 LI BND       u[0,4]     0
 UI BND       u[0,4]     1
 LI BND       u[1,2]     0
 UI BND       u[1,2]     1
 LI BND       u[1,3]     0
 UI BND       u[1,3]     1
 LI BND       u[1,4]     0
 UI BND       u[1,4]     1
 LI BND       u[2,1]     0
 UI BND       u[2,1]     1
 LI BND       u[2,3]     0
 UI BND       u[2,3]     1
 LI BND       u[2,4]     0
 UI BND       u[2,4]     1
 LI BND       u[3,0]     0
 UI BND       u[3,0]     1
 LI BND       u[3,1]     0
 UI BND       u[3,1]     1
 LI BND       u[3,2]     0
 UI BND       u[3,2]     1
 LI BND       u[3,4]     0
 UI BND       u[3,4]     1
 LI BND       u[4,0]     0
 UI BND       u[4,0]     1
 LI BND       u[4,1]     0
 UI BND       u[4,1]     1
 LI BND       u[4,2]     0
 UI BND       u[4,2]     1
 LI BND       u[4,3]     0
 UI BND       u[4,3]     1
ENDATA
